============================[ Problem Statistics ]=============================|                                                                             ||  Number of variables:          4242                                         ||  Number of clauses:            9982                                         ||  Parse time:                   0.38 s                                       ||                                                                             |============================[ Search Statistics ]==============================| Conflicts |          ORIGINAL         |          LEARNT          | Progress ||           |    Vars  Clauses Literals |    Limit  Clauses Lit/Cl |          |===============================================================================|       100 |    1591     6187   590918 |     2268      100     53 | 62.501 % |===============================================================================restarts              : 3conflicts             : 215            (376 /sec)decisions             : 481            (0.00 % random) (841 /sec)propagations          : 11681          (20421 /sec)conflict literals     : 15527          (95.07 % deleted)CPU time              : 0.572 sSATISFIABLE